c This Formular is generated by mcnf
c
c    horn? no 
c    forced? no 
c    mixed sat? no 
c    clause length = 3 
c
p cnf 20  91 
 -15 -6 17 0
19 -11 -10 0
-2 11 -10 0
-2 11 -17 0
-6 -4 16 0
8 20 11 0
14 7 15 0
14 5 15 0
-3 4 -7 0
-19 5 -4 0
12 -7 19 0
5 -12 20 0
2 -5 20 0
10 14 12 0
-3 -7 -6 0
7 19 16 0
-15 14 -13 0
-19 3 16 0
4 20 -15 0
6 9 -2 0
-8 1 -14 0
12 4 -7 0
4 -8 -14 0
-5 -17 20 0
-16 6 -9 0
15 -14 -11 0
3 2 9 0
-10 -15 -20 0
-15 10 -19 0
10 15 -9 0
1 14 9 0
12 -7 -11 0
7 -2 13 0
6 8 15 0
-3 -10 -18 0
-9 17 -12 0
-5 -18 -3 0
14 -5 17 0
12 -16 -17 0
9 -1 7 0
-4 20 -16 0
%
0

85 79 37 59 21 51 100 1 98 59 95 11 50 97 35 41 77 20 65 7
